\ Model P4
\ LP format - for model browsing. Use MPS format to capture full model detail.
Minimize
  999 X[1,1] + 12 X[1,2] + 8 X[1,3] + 15 X[1,4] + 999 X[1,5] + 999 X[2,1]
   + 999 X[2,2] + 9 X[2,3] + 999 X[2,4] + 16 X[2,5] + 999 X[3,1]
   + 999 X[3,2] + 999 X[3,3] + 6 X[3,4] + 7 X[3,5] + 999 X[4,1]
   + 999 X[4,2] + 999 X[4,3] + 999 X[4,4] + 999 X[4,5] + 999 X[5,1]
   + 999 X[5,2] + 999 X[5,3] + 12 X[5,4] + 999 X[5,5]
Subject To
 R0: X[1,1] <= 10
 R1: X[1,2] <= 10
 R2: X[1,3] <= 10
 R3: X[1,4] <= 10
 R4: X[1,5] <= 10
 R5: X[2,1] <= 10
 R6: X[2,2] <= 10
 R7: X[2,3] <= 10
 R8: X[2,4] <= 10
 R9: X[2,5] <= 10
 R10: X[3,1] <= 10
 R11: X[3,2] <= 10
 R12: X[3,3] <= 10
 R13: X[3,4] <= 10
 R14: X[3,5] <= 10
 R15: X[4,1] <= 10
 R16: X[4,2] <= 10
 R17: X[4,3] <= 10
 R18: X[4,4] <= 10
 R19: X[4,5] <= 10
 R20: X[5,1] <= 10
 R21: X[5,2] <= 10
 R22: X[5,3] <= 10
 R23: X[5,4] <= 10
 R24: X[5,5] <= 10
 R25: - X[1,2] - X[1,3] - X[1,4] = -15
 R26: X[1,2] - X[2,3] - X[2,5] = -15
 R27: X[1,3] + X[2,3] - X[3,4] - X[3,5] = 0
 R28: X[1,4] + X[3,4] + X[5,4] = 20
 R29: X[2,5] + X[3,5] - X[5,4] = 10
Bounds
Generals
 X[1,1] X[1,2] X[1,3] X[1,4] X[1,5] X[2,1] X[2,2] X[2,3] X[2,4] X[2,5]
 X[3,1] X[3,2] X[3,3] X[3,4] X[3,5] X[4,1] X[4,2] X[4,3] X[4,4] X[4,5]
 X[5,1] X[5,2] X[5,3] X[5,4] X[5,5]
End
